RAW/CMTQ/fspd-mid/CMT12Q.vrp_seed-6.out
730.6247748	21.421	101.035
