RAW/CMTQ/fspd-mid/CMT12Q.vrp_seed-6.sol
Route #1: 75 91 89 88 85 84 82 83 86 87 90 63 65
Route #2: 10 11 13 17 18 19 15 16 14 12 9 8 6 7
Route #3: 23 26 28 30 34 36 39 38 37 35 31 33 32 29 24 20
Route #4: 62 74 72 80 79 77 73 70 71 76 78 81
Route #5: 98 96 95 94 92 93 97 100 99 2 1 4 3 5
Route #6: 67 69 66 61 64 68 55 57 54 53 56 58 60 59 40 41
Route #7: 21 22 25 27 52 50 51 48 45 44 42 46 49 47 43
Cost 730.624775